; benchmark generated from python API
(set-info :status unknown)
(declare-datatypes ((IntState 0)) (((Mk1 (val1 Int)) (Mk2 (val2 Int)))))
 (declare-fun c_main_~i~6 () Int)
(declare-fun c_main_~j~6 () Int)
(declare-fun c_main_~k~6 () Int)
(assert
 (let (($x174 (<= c_main_~j~6 (* 2 c_main_~i~6))))
 (let (($x138 (exists ((main_~i~6_st IntState) (val!105 Int) )(let ((?x56 (val2 main_~i~6_st)))
 (let (($x108 (<= ?x56 1)))
 (let (($x52 (not (= main_~i~6_st (Mk1 val!105)))))
 (and $x52 (and (<= c_main_~j~6 (* 2 ?x56)) $x108 (<= ?x56 c_main_~k~6)))))))
 ))
 (let (($x90 (<= c_main_~i~6 1)))
 (let (($x114 (exists ((v_nnf_2 Int) )(let (($x146 (<= v_nnf_2 1)))
 (let ((?x21 (* 2 v_nnf_2)))
 (let (($x109 (<= c_main_~j~6 ?x21)))
 (and (<= (+ v_nnf_2 1) c_main_~k~6) $x109 $x146)))))
 ))
 (and (and $x90 $x114 $x174) (not (and $x90 $x138 $x174))))))))
(check-sat)
